interval = 60;
days = 7;
demand = [0,0,0,0,0,0,0,3,11,11,12,18,18,18,15,11,11,7,7,2,0,0,1,1,1,1,1,1,1,1,0,5,13,13,14,20,20,20,15,11,11,7,7,2,0,0,1,1,1,1,1,1,1,1,0,5,13,13,14,20,20,20,15,11,11,7,7,2,0,0,2,2,2,2,2,2,2,2,0,5,13,13,14,20,20,20,15,11,11,7,7,2,0,0,1,1,1,1,1,1,1,1,0,5,13,13,14,19,19,19,14,10,10,6,6,3,0,0,1,1,1,1,1,1,1,1,0,4,7,7,8,14,14,17,13,13,13,10,10,5,3,3,0,0,0,0,0,0,0,0,0,4,7,7,8,14,14,17,13,13,13,10,10,5,3,3,0,0];
shiftTypes = 4;
minStart = [5, 9, 13, 21];
maxStart = [8, 11, 15, 23];
minLength = [7, 7, 7, 7];
maxLength = [9, 9, 9, 9];
minDuties = 3;
maxDuties = 5;
avgMinutes = 2310;
weightUnderCover = 1;
weightOverCover = 1;
weightDutiesPerWeek = 1000;
weightShiftInstances = 60;
